nb_women = 5;
nb_men = 5;

name_women = ["Alice", "Barbara", "Claire", "Dana", "Emeline"];
name_men = ["Tom", "Ugo", "Victor", "Xavier", "Yann"];

rank_women = [
	[1, 2, 4, 3, 5],
	[3, 5, 1, 2, 4],
	[5, 4, 2, 1, 3],
	[1, 3, 5, 4, 2],
	[4, 2, 3, 5, 1]
];

rank_men = [
	[5, 1, 2, 4, 3],
	[4, 1, 3, 2, 5],
	[5, 3, 2, 3, 1],
	[1, 5, 4, 3, 2],
	[4, 3, 2, 1, 5]
];